solution status: optimal solution found
objective value:                                   33
x0_1                                                1 	(obj:0)
x1_7                                                1 	(obj:0)
x2_6                                                1 	(obj:0)
x3_8                                                1 	(obj:0)
x4_5                                                1 	(obj:0)
x5_4                                                1 	(obj:0)
x6_3                                                1 	(obj:0)
x7_2                                                1 	(obj:0)
x8_9                                                1 	(obj:0)
quadobjvar                                         33 	(obj:1)
